num_offers = 35;
num_halls = 10;
start=[71,1,31,44,2,37,27,15,7,42,84,21,28,10,7,35,79,12,44,29,39,28,15,67,33,9,12,28,38,42,18,35,18,3,6];
end=[99,63,70,49,69,50,42,55,22,52,88,91,30,26,59,74,92,87,68,31,56,63,81,98,49,17,54,87,42,95,97,73,38,79,38];
price=[2886,5405,3357,239,1969,236,801,3146,184,274,178,3905,168,1499,770,1329,199,2930,447,192,1319,3384,2379,1591,1686,347,925,3095,475,2613,5570,3449,1845,2894,1663];
requirement=[845,204,205,713,327,467,922,623,295,753,463,477,850,787,223,843,997,698,261,433,778,255,669,596,227,447,598,965,364,754,936,423,710,786,503];
capacity=[459,828,636,958,478,355,854,889,217,561];
